SECTION Graph
Nodes 80
Edges 79

E 1 53 292
E 1 57 289
E 1 72 292
E 1 75 294
E 2 20 290
E 2 24 292
E 2 54 293
E 3 66 293
E 4 23 297
E 5 31 295
E 6 18 292
E 6 51 292
E 6 58 291
E 6 73 291
E 7 26 294
E 7 54 289
E 8 40 293
E 8 67 294
E 9 12 291
E 9 40 293
E 9 44 282
E 9 64 286
E 10 14 293
E 10 60 289
E 11 54 292
E 12 31 291
E 12 46 292
E 12 77 291
E 13 31 291
E 15 36 290
E 15 48 288
E 15 76 296
E 16 20 291
E 17 41 289
E 18 54 292
E 18 74 295
E 18 79 293
E 19 79 288
E 20 41 292
E 20 68 293
E 21 42 285
E 21 79 291
E 22 23 293
E 23 39 290
E 23 44 290
E 24 25 286
E 24 33 292
E 25 39 292
E 25 80 294
E 27 44 294
E 28 52 295
E 29 50 292
E 29 52 292
E 30 35 296
E 30 37 294
E 31 55 294
E 32 55 294
E 33 43 292
E 34 41 290
E 34 52 287
E 34 75 291
E 36 41 286
E 37 71 291
E 38 58 293
E 39 60 293
E 41 47 292
E 45 62 293
E 48 59 295
E 48 62 294
E 49 67 292
E 50 66 288
E 54 61 294
E 54 65 292
E 54 70 293
E 56 58 291
E 57 69 299
E 63 64 294
E 64 78 292
E 66 71 293
END
SECTION Terminals
T 1
T 2
T 3
T 4
T 5
T 6
T 7
T 8
T 9
T 10
T 11
T 12
T 13
T 14
T 15
T 16
T 17
T 18
T 19
T 20
T 21
T 22
T 23
T 24
T 25
T 26
T 27
T 28
T 29
T 30
T 31
T 32
T 33
T 34
T 35
T 36
T 37
T 38
T 39
T 40
T 41
T 42
T 43
T 44
T 45
T 46
T 47
T 48
T 49
T 50
T 51
T 52
T 53
T 54
T 55
T 56
T 57
T 58
T 59
T 60
T 61
T 62
T 63
T 64
T 65
T 66
T 67
T 68
T 69
T 70
T 71
T 72
T 73
T 74
T 75
T 76
T 77
T 78
T 79
T 80
END
SECTION Cost
23050
END
